============================[ Problem Statistics ]=============================|                                                                             ||  Number of variables:          4242                                         ||  Number of clauses:            9981                                         ||  Parse time:                   0.39 s                                       ||                                                                             |============================[ Search Statistics ]==============================| Conflicts |          ORIGINAL         |          LEARNT          | Progress ||           |    Vars  Clauses Literals |    Limit  Clauses Lit/Cl |          |===============================================================================|       100 |    1591     6186   589327 |     2268      100     53 | 62.501 % |===============================================================================restarts              : 3conflicts             : 214            (372 /sec)decisions             : 480            (0.00 % random) (833 /sec)propagations          : 11680          (20278 /sec)conflict literals     : 15430          (95.07 % deleted)CPU time              : 0.576 sSATISFIABLE